32	4
10	10	10	10
0	0	0	0	0	7	5	2	10	3	4	6	7
10	0	1	1	0	6	8	11	13	14	16	17
3	1	3	4	1	6	8	11	13	14	16	17
5	5	4	3	1	6	9	11	13	14	17	19
9	4	2	0	4	6	12	13	15	16	17	19
2	4	5	6	2	4	11	12	17	19
2	0	2	6	5	5	13	15	16	17	19
5	5	8	4	2	3	12	15	19
7	2	7	3	4	5	15	18	20	24	30
10	4	6	5	8	5	11	17	18	19	24
10	3	5	0	1	4	15	20	29	30
7	3	2	4	0	6	20	24	26	27	29	30
6	3	2	0	2	4	20	23	26	29
4	6	3	0	4	3	18	25	30
5	2	3	2	8	5	21	22	23	27	31
2	2	0	2	6	4	21	22	23	31
10	5	3	5	0	5	20	21	23	27	30
1	5	7	7	2	5	21	23	27	29	31
2	5	1	5	4	5	21	27	29	30	31
2	7	3	8	0	3	22	28	31
8	6	3	4	0	2	26	28
2	3	4	0	2	1	25
1	1	8	4	5	1	28
3	10	7	4	4	1	25
1	2	0	3	2	1	32
4	7	2	3	3	1	32
10	0	3	6	2	1	28
10	3	2	7	3	1	32
4	3	4	0	4	1	32
2	0	3	2	6	1	32
5	2	6	3	7	1	32
0	0	0	0	0	0
